p cnf 727 1786
c ind 630 639 640 652 654 655 662 663 666 671 0
c ind 672 679 680 690 696 697 705 706 719 711 0
c ind 708 687 688 707 713 682 712 591 651 723 0
c ind 595 609 622 638 722 590 592 594 601 602 0
c ind 605 615 623 626 636 641 668 673 693 698 0
c ind 716 721 585 593 583 659 700 632 695 718 0
c ind 720 724 725 587 589 642 670 604 629 631 0
c ind 675 681 694 717 610 637 669 649 709 710 0
c ind 674 611 699 689 616 653 645 678 677 683 0
c ind 704 684 650 685 686 702 714 665 703 715 0
c ind 656 613 676 627 701 634 633 618 628 658 0
c ind 657 660 596 598 606 600 619 621 617 691 0
c ind 648 603 620 664 599 647 624 635 661 597 0
c ind 643 612 614 608 646 692 607 644 667 625 0
c ind 584 586 588 1 0
c ret 411 536 537 538 539 540 541 542 412 543 0
c ret 544 448 449 545 546 547 548 549 550 450 0
c ret 551 552 553 413 554 555 556 557 558 559 0
c ret 560 451 452 414 561 562 563 564 565 566 0
c ret 567 568 569 570 571 572 573 415 574 575 0
c ret 576 577 578 579 580 581 582 416 417 453 0
c ret 418 454 455 456 419 403 420 457 458 459 0
c ret 421 422 460 423 461 424 462 425 463 464 0
c ret 426 404 427 465 466 428 467 468 469 470 0
c ret 429 471 472 430 473 474 431 475 476 432 0
c ret 477 433 478 479 405 480 481 482 483 484 0
c ret 485 486 487 488 434 435 436 437 489 438 0
c ret 439 490 491 406 440 492 441 493 494 495 0
c ret 496 407 497 498 499 500 501 502 503 504 0
c ret 505 408 506 507 508 509 510 511 512 513 0
c ret 442 443 514 515 516 444 517 445 409 518 0
c ret 519 520 521 522 446 523 447 524 525 526 0
c ret 527 410 528 529 530 531 532 533 534 535 0
2 3 273 -281 0
2 3 -275 -281 0
-2 -3 0
-2 281 0
-2 -273 275 0
3 -4 -40 0
3 21 -38 -40 0
-3 40 0
-3 4 -21 0
-3 4 38 0
4 5 19 0
4 5 408 0
4 -19 -408 531 0
-4 -5 408 0
-4 -19 -408 -531 0
-4 -5 19 0
5 16 -410 0
5 6 16 0
-5 -16 0
-5 -6 410 0
6 -9 -412 0
6 7 412 0
-6 -7 412 0
-6 9 -412 0
7 -430 -451 0
7 -8 -451 0
-7 451 0
-7 8 430 0
8 -423 -424 -452 0
-8 423 0
-8 424 0
-8 452 0
7 9 10 0
9 -10 480 0
-7 -9 10 0
-9 -10 -480 0
10 11 431 0
-10 -431 0
-10 -11 0
11 12 -481 0
-11 481 0
-11 -12 0
12 13 484 0
12 13 485 0
-12 -13 0
-12 -484 -485 0
13 14 -15 431 481 0
-13 15 0
-13 -14 0
-13 -431 0
-13 -481 0
14 432 441 -488 0
-14 488 0
-14 -441 0
-14 -432 0
15 -482 484 485 0
-15 482 0
-15 -485 0
-15 -484 0
16 17 -410 0
-16 410 0
-16 -17 0
17 -18 -505 0
6 17 18 0
-6 -17 18 0
-17 -18 505 0
11 18 412 431 0
-18 -412 0
-11 -18 0
-18 -431 0
-10 19 -20 0
10 -19 0
-19 20 0
20 410 412 0
-20 -410 0
-20 -412 0
21 -36 -584 0
21 22 584 0
-21 -22 584 0
-21 36 -584 0
22 -33 -586 0
22 23 586 0
-22 -23 586 0
-22 33 -586 0
23 -26 -588 0
23 24 588 0
-23 -24 588 0
-23 26 -588 0
24 -606 -627 0
24 -25 -627 0
-24 627 0
-24 25 606 0
25 -599 -600 -628 0
-25 599 0
-25 600 0
-25 628 0
24 26 27 0
26 -27 656 0
-24 -26 27 0
-26 -27 -656 0
27 28 607 0
-27 -607 0
-27 -28 0
28 29 -657 0
-28 657 0
-28 -29 0
29 30 660 0
29 30 661 0
-29 -30 0
-29 -660 -661 0
30 31 -32 607 657 0
-30 32 0
-30 -31 0
-30 -607 0
-30 -657 0
31 608 617 -664 0
-31 664 0
-31 -617 0
-31 -608 0
32 -658 660 661 0
-32 658 0
-32 -661 0
-32 -660 0
33 -34 -681 0
23 33 34 0
-23 -33 34 0
-33 -34 681 0
28 34 -35 0
-28 -34 0
-34 35 0
35 588 607 0
-35 -588 0
-35 -607 0
22 36 37 0
36 -37 707 0
-22 -36 37 0
-36 -37 -707 0
28 -35 37 586 0
35 -37 0
-28 -37 0
-37 -586 0
-35 38 -39 0
35 -38 0
-38 39 0
39 584 586 0
-39 -584 0
-39 -586 0
40 -64 -79 0
40 41 -79 584 0
-40 79 0
-40 -41 64 0
-40 64 -584 0
41 42 63 0
22 41 42 -47 0
-41 -42 0
-22 -41 -63 0
-41 47 -63 0
42 -43 708 711 0
42 43 44 708 -711 0
-42 -43 -711 0
-42 43 -44 0
-42 -708 0
-42 43 711 0
43 586 588 0
-43 -586 0
-43 -588 0
44 -45 635 -683 0
44 -45 -683 -684 0
-44 45 0
-44 683 0
-44 -635 684 0
45 -586 -709 0
45 -46 586 0
-45 46 586 0
-45 -586 709 0
46 -588 -685 0
46 588 -686 0
-46 588 686 0
-46 -588 685 0
47 -58 701 710 0
47 -48 -58 710 0
-47 58 0
-47 -710 0
-47 48 -701 0
48 54 692 699 0
48 -49 54 699 0
-48 -54 0
-48 -699 0
-48 49 -692 0
49 -586 692 0
49 -50 586 0
-49 -586 -692 0
-49 50 586 0
50 -588 667 0
50 -51 588 0
-50 -588 -667 0
-50 51 588 0
51 -53 614 0
51 -53 -625 0
51 52 -53 0
-51 53 0
-51 -52 -614 625 0
52 644 646 647 -648 0
-52 648 0
-52 -647 0
-52 -644 0
-52 -646 0
53 646 647 0
53 625 644 0
53 644 647 0
53 625 646 0
-53 -644 -646 0
-53 -625 -647 0
54 55 -667 0
54 55 -691 0
-54 -55 0
-54 667 691 0
55 -56 586 0
-55 -586 0
-55 56 0
56 -57 588 0
-56 -588 0
-56 57 0
57 -625 644 0
57 625 643 0
-57 625 -643 0
-57 -625 -644 0
58 -586 689 0
58 -59 586 0
-58 -586 -689 0
-58 59 586 0
59 -588 665 0
59 -60 588 0
-59 -588 -665 0
-59 60 588 0
60 61 596 0
60 61 618 619 0
-60 -61 0
-60 -596 -619 0
-60 -596 -618 0
61 62 597 -618 -619 0
-61 -597 0
-61 -62 0
-61 619 0
-61 618 0
62 -620 -621 0
-62 620 0
-62 621 0
43 -44 63 -708 0
-63 708 0
-43 -63 0
44 -63 0
-36 64 -65 -76 -78 0
-64 78 0
36 -64 0
-64 76 0
-64 65 0
65 66 68 -70 0
-48 65 68 -70 0
-65 70 0
-65 -68 0
48 -65 -66 0
66 67 700 0
66 692 700 0
-66 -700 0
-66 -67 -692 0
67 -586 -667 0
56 67 586 0
67 -586 -691 0
-56 -67 586 0
-67 -586 667 691 0
-43 68 -69 0
-43 -58 68 -598 0
43 -68 0
58 -68 69 0
-68 69 598 0
69 -633 634 -635 0
-69 633 0
-69 -634 0
-69 635 0
70 71 73 0
-70 -71 0
-70 -73 0
71 72 704 0
71 -586 704 0
-71 -704 0
-71 -72 586 0
72 588 603 0
-72 -588 0
-72 -603 0
73 74 701 0
-73 -701 0
-73 -74 0
74 -75 -692 0
74 692 703 0
-74 692 -703 0
-74 75 -692 0
75 624 625 0
75 612 -625 0
-75 -624 625 0
-75 -612 -625 0
76 -701 0
-74 -75 76 0
-74 76 -77 0
74 -76 701 0
75 -76 77 701 0
77 667 691 702 0
-77 -667 0
-77 -702 0
-77 -691 0
-43 69 71 78 -584 0
43 -78 0
-71 -78 0
-78 584 0
-69 -78 0
4 79 -80 -256 0
-21 79 -80 -256 0
-79 256 0
-79 80 0
-4 21 -79 0
22 80 -82 -230 0
80 -81 -82 -230 0
-80 230 0
-80 82 0
-22 -80 81 0
-35 81 586 0
-81 -586 0
35 -81 0
-23 82 -83 222 0
-35 82 -83 222 0
-82 83 0
-82 -222 0
23 35 -82 0
83 84 -90 -91 -213 0
83 -84 90 -91 -213 0
-83 213 0
-83 84 90 0
-83 91 0
-83 -84 -90 0
84 -408 539 0
84 -85 408 0
-84 -408 -539 0
-84 85 408 0
85 -410 516 0
85 -86 410 0
-85 -410 -516 0
-85 86 410 0
86 -412 491 0
86 -87 412 0
-86 -412 -491 0
-86 87 412 0
87 -89 438 0
87 -89 -449 0
87 88 -89 0
-87 89 0
-87 -88 -438 449 0
88 468 470 471 -472 0
-88 472 0
-88 -471 0
-88 -468 0
-88 -470 0
89 470 471 0
89 449 468 0
89 468 471 0
89 449 470 0
-89 -468 -470 0
-89 -449 -471 0
90 -584 -715 0
49 90 584 0
-90 -584 715 0
-49 -90 584 0
91 -92 -105 -136 -194 0
-91 194 0
-91 92 0
-91 136 0
-91 105 0
92 -93 -98 -102 104 0
92 -93 98 102 104 0
-92 -104 0
-92 -98 102 0
-92 93 0
-92 98 -102 0
93 94 95 0
93 94 -96 0
-93 -94 0
-93 -95 96 0
-60 94 -598 0
-94 598 0
60 -94 0
-57 95 649 0
-95 -649 0
57 -95 0
-51 -57 96 642 0
-51 96 -97 642 0
-96 -642 0
51 -96 0
57 -96 97 0
97 645 646 0
97 -625 646 0
97 613 625 -646 0
-97 -613 -646 0
-97 -625 -646 0
-97 625 -645 646 0
98 99 408 0
98 -408 516 538 0
-98 -408 -516 0
-98 -99 408 0
-98 -408 -538 0
99 -410 -491 0
99 100 410 0
99 -410 -515 0
-99 -100 410 0
-99 -410 491 515 0
100 -101 412 0
-100 -412 0
-100 101 0
101 -449 468 0
101 449 467 0
-101 449 -467 0
-101 -449 -468 0
102 -103 -584 0
67 102 584 0
-67 -102 584 0
-102 103 -584 0
103 692 714 0
-103 -692 0
-103 -714 0
-95 104 -614 0
-96 104 -614 0
-104 614 0
95 96 -104 0
105 -106 -114 -119 -129 0
-105 129 0
-105 106 0
-105 119 0
-105 114 0
106 -107 110 -111 0
106 -107 110 112 0
-106 107 0
-106 -110 0
-106 111 -112 0
74 107 109 0
74 107 -457 0
74 107 -108 0
-74 -107 0
-107 108 -109 457 0
-39 108 588 633 0
39 -108 0
-108 -633 0
-108 -588 0
109 408 410 412 0
-109 -408 0
-109 -412 0
-109 -410 0
-75 110 -667 0
110 667 677 0
-110 667 -677 0
75 -110 -667 0
-109 111 -422 0
-111 422 0
109 -111 0
112 -113 -598 0
-112 598 0
-112 113 0
-39 113 588 0
-113 -588 0
39 -113 0
114 -115 118 -584 0
71 114 -115 118 0
-114 115 0
-114 -118 0
-71 -114 584 0
-112 115 116 0
111 115 -117 0
111 115 116 0
-112 115 -117 0
-111 112 -115 0
-115 -116 117 0
116 724 725 0
116 661 -725 0
116 -661 725 0
-116 -661 -725 0
-116 661 -724 725 0
117 581 582 0
117 485 -582 0
117 -485 582 0
-117 -485 -582 0
-117 485 -581 582 0
-113 118 483 -659 0
109 -113 118 -659 0
113 -118 0
-118 659 0
-109 -118 -483 0
119 -120 126 -127 0
119 -120 126 128 0
-119 120 0
-119 -126 0
-119 127 -128 0
-75 120 121 -125 0
75 120 -123 125 0
75 120 121 125 0
-75 120 -123 -125 0
75 -120 -125 0
-75 -120 125 0
-120 -121 123 0
121 -122 458 0
-121 -458 0
-121 122 0
-20 122 408 0
-122 -408 0
20 -122 0
123 -124 634 0
-123 -634 0
-123 124 0
-43 124 584 0
-124 -584 0
43 -124 0
125 448 449 0
125 436 -449 0
-125 -448 449 0
-125 -436 -449 0
-108 126 -457 0
-108 109 126 0
108 -126 0
-109 -126 457 0
-113 127 620 0
-127 -620 0
113 -127 0
-109 128 444 0
-128 -444 0
109 -128 0
129 130 -131 -134 0
129 130 -131 135 0
-129 -130 0
-129 131 0
-129 134 -135 0
75 77 130 701 0
-130 -701 0
-77 -130 0
-75 -130 0
-116 131 133 0
117 131 -132 0
117 131 133 0
-116 131 -132 0
116 -117 -131 0
-131 132 -133 0
-113 132 -659 0
-132 659 0
113 -132 0
-109 133 -483 0
-133 483 0
109 -133 0
-113 134 -720 0
-134 720 0
113 -134 0
-109 135 -576 0
-135 576 0
109 -135 0
136 -137 -160 -168 -175 0
-136 175 0
-136 137 0
-136 168 0
-136 160 0
137 -138 -143 -148 -154 0
-137 154 0
-137 138 0
-137 148 0
-137 143 0
77 138 139 140 142 0
-77 138 -139 140 142 0
-138 -140 0
-77 -138 139 0
-138 -142 0
77 -138 -139 0
139 539 563 567 0
-139 -539 0
-139 -567 0
-139 -563 0
140 -141 -607 -608 609 0
-140 141 0
-140 607 0
-140 608 0
-140 -609 0
141 -599 -606 0
-141 599 0
-141 606 0
142 -603 622 0
142 -603 604 623 0
-142 603 0
-142 -604 -622 0
-142 -622 -623 0
38 71 143 -145 0
71 143 -144 -145 0
-143 145 0
-71 -143 0
-38 -143 144 0
144 408 410 412 431 0
-144 -431 0
-144 -412 0
-144 -408 0
-144 -410 0
145 146 -572 0
145 147 -586 0
145 -572 -586 0
145 146 147 0
-145 -147 572 0
-145 -146 586 0
72 146 678 0
-146 -678 0
-72 -146 0
147 584 -710 0
147 -584 -718 0
-147 -584 718 0
-147 584 710 0
-75 148 -149 152 0
148 -149 -151 152 0
-148 149 0
-148 -152 0
75 -148 151 0
-147 149 -695 0
149 -150 572 0
149 572 -695 0
-147 149 -150 0
147 -149 -572 0
-149 150 695 0
-72 150 586 0
-150 -586 0
72 -150 0
151 -611 -650 -676 0
151 626 -650 -676 0
-151 676 0
-151 650 0
-151 611 -626 0
152 -153 -603 0
152 -603 604 -605 0
-152 603 0
-152 153 -604 0
-152 153 605 0
153 -601 602 0
-153 601 0
-153 -602 0
154 155 156 158 159 0
154 155 -156 -158 159 0
-154 -159 0
-154 -156 158 0
-154 -155 0
-154 156 -158 0
155 -588 670 0
155 -653 670 0
155 588 -603 653 0
-155 -588 -670 0
-155 -653 -670 0
-155 588 603 653 0
156 -157 408 410 0
-156 157 0
-156 -410 0
-156 -408 0
157 412 427 0
-157 -412 0
-157 -427 0
-39 -72 158 0
39 -158 0
72 -158 0
38 -144 159 0
-38 -159 0
144 -159 0
160 -161 -163 -165 -167 0
-160 167 0
-160 161 0
-160 165 0
-160 163 0
161 162 -599 -600 0
161 162 599 -608 0
-161 -162 0
-161 -599 600 0
-161 599 608 0
162 599 -607 610 0
162 599 606 -607 0
-162 -599 0
-162 607 0
-162 -606 -610 0
163 164 597 0
163 164 -596 0
163 164 598 0
-163 -164 0
-163 596 -597 -598 0
164 611 -612 -613 0
-164 613 0
-164 612 0
-164 -611 0
103 165 166 0
165 166 564 579 0
-165 -166 0
-103 -165 -579 0
-103 -165 -564 0
166 -603 638 0
166 -629 638 0
-166 -638 0
-166 603 629 0
-72 167 -585 694 0
-72 167 585 -694 0
167 585 -670 -694 0
167 -585 -670 694 0
-167 -585 -694 0
-167 585 694 0
72 -167 670 0
-103 168 -170 -171 0
168 169 -170 -171 0
-168 171 0
-168 170 0
103 -168 -169 0
169 564 579 0
-169 -564 0
-169 -579 0
170 -459 508 -635 684 0
170 459 -508 635 -684 0
170 459 508 635 684 0
170 -459 -508 -635 -684 0
-170 -459 635 0
-170 459 -635 0
-170 508 -684 0
-170 -508 684 0
171 -172 173 174 569 0
171 172 173 174 -569 0
-171 -173 0
-171 172 569 0
-171 -174 0
-171 -172 -569 0
172 584 704 0
-172 -584 0
-172 -704 0
173 -440 650 0
173 -440 616 0
-173 440 0
-173 -616 -650 0
174 -586 695 0
174 -678 695 0
-174 -695 0
-174 586 678 0
175 -176 -181 -184 -186 0
-175 186 0
-175 176 0
-175 184 0
-175 181 0
176 -177 -178 507 683 0
176 -177 -178 -507 -683 0
-176 178 0
-176 -507 683 0
-176 177 0
-176 507 -683 0
177 -488 616 0
177 -440 664 0
177 -440 -488 0
177 616 664 0
-177 488 -664 0
-177 440 -616 0
178 179 180 583 -717 0
178 179 180 -583 717 0
-178 -179 0
-178 583 717 0
-178 -180 0
-178 -583 -717 0
179 -589 -637 0
-179 589 0
-179 637 0
180 587 669 0
-180 -587 0
-180 -669 0
181 182 183 566 701 0
181 182 183 -566 -701 0
-181 -182 0
-181 -566 701 0
-181 -183 0
-181 566 -701 0
182 -580 715 0
-182 580 0
-182 -715 0
183 -488 664 0
-183 488 0
-183 -664 0
184 -185 603 0
184 -185 -629 -653 0
-184 185 0
-184 -603 629 0
-184 -603 653 0
185 -611 615 0
185 -614 616 0
185 -611 -614 0
185 615 616 0
-185 611 -616 0
-185 614 -615 0
186 -187 -189 -192 -193 0
-186 193 0
-186 187 0
-186 192 0
-186 189 0
69 75 146 187 -188 0
-187 188 0
-146 -187 0
-69 -187 0
-75 -187 0
188 694 -698 -716 717 0
-188 -694 0
-188 -717 0
-188 716 0
-188 698 0
189 190 -191 715 0
189 190 -191 -580 0
-189 191 0
-189 -190 0
-189 580 -715 0
190 608 617 0
-190 -608 0
-190 -617 0
191 -589 669 0
191 587 -637 0
191 587 -589 0
191 -637 669 0
-191 -587 -669 0
-191 589 637 0
192 -668 669 -673 -693 0
-192 693 0
-192 668 0
-192 673 0
-192 -669 0
193 -616 -636 637 -641 0
-193 641 0
-193 616 0
-193 636 0
-193 -637 0
-76 194 -195 -206 -210 0
-194 210 0
76 -194 0
-194 206 0
-194 195 0
195 -196 -197 -202 0
195 196 197 198 0
195 196 197 -202 0
195 -196 -197 198 0
-195 196 -197 0
-195 -196 197 0
-195 -198 202 0
-113 196 723 0
25 -113 196 610 0
113 -196 0
-25 -196 -723 0
-196 -610 -723 0
-122 197 578 0
8 -122 197 434 0
122 -197 0
-8 -197 -578 0
-197 -434 -578 0
-127 198 -200 619 0
-127 198 -199 -200 0
-198 200 0
127 -198 0
-198 199 -619 0
199 621 631 0
199 -597 621 0
-199 -621 0
-199 597 -631 0
200 201 621 0
200 -201 597 0
200 201 631 0
-200 -201 -597 0
-200 201 -621 -631 0
201 -598 -632 0
-201 598 0
-201 632 0
-128 202 -204 443 0
-128 202 -203 -204 0
-202 204 0
128 -202 0
-202 203 -443 0
203 445 455 0
203 -421 445 0
-203 -445 0
-203 421 -455 0
204 205 445 0
204 -205 421 0
204 205 455 0
-204 -205 -421 0
-204 205 -445 -455 0
205 -422 -456 0
-205 422 0
-205 456 0
127 206 207 -209 0
-128 206 207 -209 0
-206 209 0
-206 -207 0
-127 128 -206 0
207 -208 -591 0
207 -591 593 -595 0
-207 591 0
-207 208 -593 0
-207 208 595 0
208 -590 592 -593 594 0
-208 593 0
-208 -594 0
-208 590 0
-208 -592 0
109 113 209 0
-109 -113 209 -576 0
-109 -113 209 720 0
109 -113 -209 0
-109 113 -209 0
-109 -209 576 -720 0
-198 210 211 -212 0
-198 210 -211 212 0
202 210 211 -212 0
202 210 -211 212 0
-210 211 212 0
-210 -211 -212 0
198 -202 -210 0
124 211 635 0
-124 211 722 0
-124 -211 -722 0
124 -211 -635 0
-122 212 -577 0
122 212 -459 0
122 -212 459 0
-122 -212 577 0
213 -214 -216 -218 0
213 214 216 -218 0
-213 218 0
-213 -214 216 0
-213 214 -216 0
-113 214 -657 0
113 214 215 0
-113 -214 657 0
113 -214 -215 0
-29 215 657 0
-29 215 607 0
29 -215 0
-215 -607 -657 0
-109 216 -481 0
109 216 217 0
-109 -216 481 0
109 -216 -217 0
-12 217 481 0
-12 217 431 0
12 -217 0
-217 -431 -481 0
218 219 220 0
218 219 -221 0
-218 -219 0
-218 -220 221 0
110 219 676 0
-219 -676 0
-110 -219 0
-56 220 675 0
220 667 675 0
-220 -675 0
56 -220 -667 0
-56 221 667 674 0
-50 -56 221 674 0
56 -221 0
-221 -674 0
50 -221 -667 0
-112 222 223 0
222 223 -224 0
-222 -223 0
112 -222 224 0
223 -584 -712 0
58 223 584 0
-223 -584 712 0
-58 -223 584 0
224 -408 -536 0
224 225 408 0
-224 -408 536 0
-224 -225 408 0
225 -410 513 0
225 -226 410 0
-225 -410 -513 0
-225 226 410 0
226 -412 489 0
226 -227 412 0
-226 -412 -489 0
-226 227 412 0
227 228 420 0
227 228 442 443 0
-227 -228 0
-227 -420 -443 0
-227 -420 -442 0
228 229 421 -442 -443 0
-228 -421 0
-228 -229 0
-228 443 0
-228 442 0
229 -444 -445 0
-229 444 0
-229 445 0
-65 230 231 -234 -236 0
-230 236 0
65 -230 0
-230 234 0
-230 -231 0
231 232 -588 0
26 231 -588 0
93 231 -588 0
-231 588 0
-26 -93 -231 -232 0
69 232 233 603 0
69 232 233 -653 0
-232 -233 0
-69 -232 0
-232 -603 653 0
75 233 650 0
-233 -650 0
-75 -233 0
-48 223 234 0
-224 234 235 0
223 234 235 0
-48 -224 234 0
-223 224 -234 0
48 -234 -235 0
-66 235 584 0
-235 -584 0
66 -235 0
68 -235 236 -237 -255 0
68 235 236 -237 255 0
-68 -236 0
-235 -236 255 0
-236 237 0
235 -236 -255 0
48 237 -239 -254 0
237 -238 -239 -254 0
-237 254 0
-237 239 0
-48 -237 238 0
-220 238 586 0
-238 -586 0
220 -238 0
239 -240 -245 -248 -252 0
-239 252 0
-239 240 0
-239 248 0
-239 245 0
-215 -217 240 -244 0
215 217 240 241 0
215 217 240 -244 0
-215 -217 240 241 0
215 -217 -240 0
-215 217 -240 0
-240 -241 244 0
241 -408 -554 0
241 -242 408 0
-241 242 408 0
-241 -408 554 0
242 -410 -533 0
242 -243 410 0
-242 243 410 0
-242 -410 533 0
243 -412 -509 0
243 412 -510 0
-243 412 510 0
-243 -412 509 0
244 -584 -721 0
-45 244 584 0
45 -244 584 0
-244 -584 721 0
219 245 246 -247 0
74 219 245 246 0
-245 -246 0
-219 -245 0
-74 -245 247 0
75 246 650 -651 0
75 97 246 650 0
-246 -650 0
-75 -246 0
-97 -246 651 0
-125 247 -564 0
247 564 568 0
-247 564 -568 0
125 -247 -564 0
247 248 249 -251 0
-74 248 249 -251 0
-248 251 0
-248 -249 0
74 -247 -248 0
121 -123 249 0
-123 249 250 -635 0
123 -249 0
-121 -249 -250 0
-121 -249 635 0
250 588 633 0
-250 -588 0
-250 -633 0
24 251 -701 0
-110 251 607 0
251 607 -701 0
24 -110 251 0
110 -251 701 0
-24 -251 -607 0
-241 252 253 0
244 252 253 0
-252 -253 0
241 -244 -252 0
-69 253 588 0
-94 253 588 0
-253 -588 0
69 94 -253 0
-221 254 649 0
221 238 254 0
-221 -254 -649 0
221 -238 -254 0
-98 255 565 0
255 564 565 0
-255 -565 0
98 -255 -564 0
256 -263 266 0
256 257 266 586 0
-256 -266 0
-256 -257 263 0
-256 263 -586 0
257 258 262 0
-23 257 258 -261 0
-257 -258 0
23 -257 -262 0
-257 261 -262 0
258 588 682 688 0
258 259 -588 682 -688 0
-258 -588 688 0
-258 -259 -688 0
-258 -682 0
-258 588 -688 0
259 -260 -588 -685 0
259 -260 588 -686 0
-259 260 0
-259 -588 685 0
-259 588 686 0
260 635 -683 0
260 -683 -684 0
-260 683 0
-260 -635 684 0
-59 -221 261 687 0
-59 261 676 687 0
59 -261 0
-261 -687 0
221 -261 -676 0
-259 262 -588 -682 0
-262 588 0
-262 682 0
259 -262 0
33 -218 253 263 -264 0
218 -263 0
-253 -263 0
-33 -263 0
-263 264 0
-75 264 -265 0
264 -265 -676 0
-264 265 0
75 -264 676 0
265 -586 588 603 0
265 -586 588 -678 0
-265 586 0
-265 -588 0
-265 -603 678 0
266 267 -269 0
266 -267 269 0
-266 -267 -269 0
-266 267 269 0
267 268 562 564 0
-84 267 268 562 0
-267 -562 0
-267 -268 0
84 -267 -564 0
98 268 -539 0
98 268 -563 0
-98 -268 0
-268 539 563 0
-48 269 271 0
269 -270 271 -584 0
-269 -271 0
48 -269 270 0
48 -269 584 0
-49 67 270 0
-103 270 715 0
67 270 715 0
-49 -103 270 0
49 -270 -715 0
-67 103 -270 0
271 -272 -584 0
-270 271 -584 -713 0
-271 584 0
-271 272 713 0
270 -271 272 0
103 272 -715 0
77 103 272 0
-103 -272 0
-77 -272 715 0
-241 273 -274 0
241 -273 0
-273 274 0
274 459 -507 0
274 -507 -508 0
-274 507 0
-274 -459 508 0
275 276 -404 -406 0
4 275 -404 -406 0
-275 404 0
-275 406 0
-4 -275 -276 0
224 276 -277 0
224 276 280 572 0
-224 -276 0
-276 277 -572 0
-276 277 -280 0
277 -278 555 0
277 548 555 0
-277 -555 0
-277 278 -548 0
278 279 539 546 0
-84 278 279 546 0
-278 -279 0
-278 -546 0
84 -278 -539 0
98 279 -516 0
98 279 -538 0
-98 -279 0
-279 516 538 0
267 280 -566 0
-280 566 0
-267 -280 0
281 -290 -303 0
281 282 -303 408 0
-281 303 0
-281 -282 290 0
-281 290 -408 0
282 283 289 0
5 282 283 -285 0
-282 -283 0
-5 -282 -289 0
-282 285 -289 0
-20 283 532 535 0
20 283 284 532 -535 0
-20 -283 -535 0
20 -283 -284 0
-283 -532 0
20 -283 535 0
-242 -274 284 0
242 -284 0
274 -284 0
-225 285 -286 534 0
-225 285 525 534 0
225 -285 0
-285 -534 0
-285 286 -525 0
286 287 516 523 0
-85 286 287 523 0
-286 -287 0
-286 -523 0
85 -286 -516 0
287 288 -491 0
287 288 -515 0
-287 -288 0
-287 491 515 0
-100 288 410 0
-288 -410 0
100 -288 0
20 -284 289 -532 0
-289 532 0
-20 -289 0
284 -289 0
290 -291 -292 -296 -300 0
-290 300 0
-290 291 0
-290 296 0
-290 292 0
5 19 291 0
-19 291 531 0
-5 19 -291 0
-19 -291 -531 0
292 294 -525 0
292 -293 294 0
-292 -294 0
-292 293 525 0
-125 293 -516 0
293 516 527 0
-293 516 -527 0
125 -293 -516 0
286 294 -295 0
-286 -294 0
-294 295 0
99 295 524 0
295 516 524 0
-295 -524 0
-99 -295 -516 0
296 297 299 0
-296 -297 0
-296 -299 0
-20 297 -298 0
-20 -225 297 -422 0
20 -297 0
225 -297 298 0
-297 298 422 0
298 -457 458 -459 0
-298 457 0
-298 -458 0
-298 459 0
157 299 528 0
299 -410 528 0
-299 -528 0
-157 -299 410 0
-20 298 300 301 -408 0
20 -300 0
-300 -301 0
-300 408 0
-298 -300 0
125 301 525 -526 0
125 301 302 525 0
-301 -525 0
-125 -301 0
-301 -302 526 0
302 491 515 0
-302 -491 0
-302 -515 0
-4 303 304 -319 0
-144 303 304 -319 0
-303 319 0
-303 -304 0
4 144 -303 0
304 311 -410 0
304 305 307 311 0
-304 -311 0
-304 -305 410 0
-304 -307 410 0
305 412 506 512 0
305 306 -412 506 -512 0
-305 -412 512 0
-305 -306 -512 0
-305 -506 0
-305 412 -512 0
-274 306 -412 -509 0
-274 306 412 -510 0
274 -306 0
-306 -412 509 0
-306 412 510 0
-306 307 308 -412 -506 0
306 -307 0
-307 -308 0
-307 412 0
-307 506 0
-6 308 -310 500 0
-6 308 -309 -310 0
-308 310 0
6 -308 0
-308 309 -500 0
-100 309 491 498 0
-86 -100 309 498 0
100 -309 0
-309 -498 0
86 -309 -491 0
-226 310 511 0
-310 -511 0
226 -310 0
17 311 -312 315 -317 0
-311 312 0
-311 -315 0
-17 -311 0
-311 317 0
-309 312 -313 0
312 314 -500 0
-309 312 -500 0
312 -313 314 0
309 -312 -314 0
-312 313 500 0
-125 313 -491 0
313 491 501 0
-313 491 -501 0
125 -313 -491 0
-100 314 499 0
314 491 499 0
-314 -499 0
100 -314 -491 0
-298 315 412 0
315 -316 412 0
-315 -412 0
298 -315 316 0
-227 316 -422 0
-316 422 0
227 -316 0
-125 317 -318 0
317 -318 -500 0
-317 318 0
125 -317 500 0
318 -410 412 427 0
318 -410 412 -502 0
-318 410 0
-318 -412 0
-318 -427 502 0
319 -320 -321 399 -400 0
-319 400 0
-319 320 0
-319 321 0
-319 -399 0
-267 320 -566 0
-247 255 320 0
255 320 -566 0
-247 -267 320 0
247 -320 566 0
-255 267 -320 0
294 321 322 323 -324 0
-321 324 0
-321 -323 0
-321 -322 0
-294 -321 0
293 322 525 0
-322 -525 0
-293 -322 0
6 323 -412 0
6 323 -431 0
-6 -323 0
-323 412 431 0
297 324 325 326 -334 0
-324 334 0
-324 -326 0
-297 -324 0
-324 -325 0
-286 325 -410 0
-286 314 325 0
286 -325 0
-314 -325 410 0
326 -327 -412 0
326 331 -412 0
9 326 -412 0
-326 412 0
-9 -326 327 -331 0
327 -328 329 0
-327 328 0
-327 -329 0
-101 328 473 0
-328 -473 0
101 -328 0
-87 -101 329 466 0
-87 329 -330 466 0
-329 -466 0
87 -329 0
101 -329 330 0
330 469 470 0
330 -449 470 0
330 437 449 -470 0
-330 -437 -470 0
-330 -449 -470 0
-330 449 -469 470 0
298 316 331 332 333 0
-331 -333 0
-331 -332 0
-298 -331 0
-316 -331 0
125 332 474 0
-332 -474 0
-125 -332 0
333 -427 477 0
-333 427 0
-333 -477 0
-296 -312 334 -335 -398 0
-334 398 0
296 -334 0
-334 335 0
312 -334 0
335 -336 392 393 -394 0
-335 394 0
-335 -393 0
-335 336 0
-335 -392 0
336 -337 -338 -353 -360 0
-336 360 0
-336 337 0
-336 353 0
-336 338 0
247 293 301 313 337 0
-313 -337 0
-301 -337 0
-247 -337 0
-293 -337 0
338 -339 -341 -343 -345 0
-338 345 0
-338 339 0
-338 343 0
-338 341 0
339 340 427 0
339 340 -453 -477 0
-339 -340 0
-339 -427 453 0
-339 -427 477 0
157 340 502 0
-340 -502 0
-157 -340 0
341 342 -519 0
341 342 410 502 0
-341 -342 0
-341 -502 519 0
-341 -410 519 0
342 420 -421 -422 0
-342 422 0
-342 421 0
-342 -420 0
109 125 298 343 -344 0
-343 344 0
-298 -343 0
-109 -343 0
-125 -343 0
344 557 -561 -573 574 0
-344 -557 0
-344 -574 0
-344 573 0
-344 561 0
345 -347 -349 -542 0
345 -346 -347 -349 0
-345 349 0
-345 347 0
-345 346 542 0
346 408 528 0
-346 -408 0
-346 -528 0
347 348 427 0
347 348 -412 0
347 348 -477 0
-347 -348 0
-347 412 -427 477 0
348 -427 462 0
348 -453 462 0
-348 -462 0
-348 427 453 0
349 350 -351 -403 574 0
349 350 -351 403 -574 0
-349 351 0
-349 403 574 0
-349 -350 0
-349 -403 -574 0
350 423 430 -431 0
-350 431 0
-350 -430 0
-350 -423 0
351 352 431 0
351 352 -423 0
351 352 -434 0
-351 -352 0
-351 423 -431 434 0
352 435 -436 -437 0
-352 437 0
-352 436 0
-352 -435 0
353 -354 -525 0
-293 -313 353 -354 0
-353 354 0
313 -353 525 0
293 -353 525 0
354 357 358 415 0
354 -355 357 358 0
-354 -358 0
-354 -357 0
-354 355 -415 0
355 -417 -418 0
355 417 419 0
355 356 -417 0
-355 417 -419 0
-355 -356 -417 418 0
356 -414 416 0
-356 414 0
-356 -416 0
-125 357 -539 0
357 539 550 0
-357 539 -550 0
125 -357 -539 0
125 358 548 -549 0
125 358 359 548 0
-358 -548 0
-125 -358 0
-358 -359 549 0
359 516 538 0
-359 -516 0
-359 -538 0
360 -361 -364 -381 -387 0
-360 387 0
-360 361 0
-360 381 0
-360 364 0
-357 361 -362 0
361 -362 -548 -566 0
-361 362 0
357 -361 548 0
357 -361 566 0
316 362 363 -569 0
-156 316 362 363 0
-362 -363 0
-316 -362 0
156 -362 569 0
125 139 363 566 0
-363 -566 0
-139 -363 0
-125 -363 0
364 -365 -370 -371 -376 0
-364 376 0
-364 365 0
-364 371 0
-364 370 0
365 -366 -367 409 -518 0
365 -366 -367 -409 518 0
-365 367 0
-365 409 518 0
-365 366 0
-365 -409 -518 0
366 -432 -438 0
366 -423 439 0
366 -423 -438 0
366 -432 439 0
-366 438 -439 0
-366 423 432 0
367 368 369 411 -493 0
367 368 369 -411 493 0
-367 -368 0
-367 411 493 0
-367 -369 0
-367 -411 -493 0
368 405 557 0
-368 -405 0
-368 -557 0
369 407 541 0
-369 -407 0
-369 -541 0
-157 370 410 0
370 -410 -528 0
370 -502 -528 0
-370 -410 528 0
157 -370 528 0
157 -370 410 502 0
371 -372 -373 -374 -375 0
-371 375 0
-371 372 0
-371 374 0
-371 373 0
372 461 -465 -492 493 0
-372 -461 0
-372 -493 0
-372 492 0
-372 465 0
373 -432 -440 -460 0
373 -440 -441 -460 0
-373 460 0
-373 440 0
-373 432 441 0
374 -540 541 -545 -556 0
-374 556 0
-374 540 0
-374 545 0
-374 -541 0
375 -497 -517 518 -522 0
-375 522 0
-375 497 0
-375 517 0
-375 -518 0
376 -377 -378 -379 -380 0
-376 380 0
-376 377 0
-376 379 0
-376 378 0
377 413 423 0
377 -424 461 0
377 423 461 0
377 413 -424 0
-377 -413 -461 0
-377 -423 424 0
378 405 440 0
378 -435 557 0
378 405 -435 0
378 440 557 0
-378 -405 -557 0
-378 435 -440 0
379 -413 -474 0
379 440 -461 0
379 -413 440 0
379 -461 -474 0
-379 413 461 0
-379 -440 474 0
380 407 -558 0
380 541 551 0
380 541 -558 0
380 407 551 0
-380 -407 -541 0
-380 -551 558 0
381 -382 385 -386 0
-125 381 -382 385 0
-381 382 0
-381 -385 0
125 -381 386 0
382 384 430 0
382 383 384 0
382 384 423 0
-382 -384 0
-382 -383 -423 -430 0
383 -431 -432 433 0
-383 431 0
-383 432 0
-383 -433 0
156 -346 384 0
156 384 551 0
156 384 558 0
-156 -384 0
346 -384 -551 -558 0
385 -427 446 0
385 -427 428 447 0
-385 427 0
-385 -428 -446 0
-385 -446 -447 0
386 -435 -474 -500 0
386 450 -474 -500 0
-386 500 0
-386 474 0
-386 435 -450 0
387 388 -389 -542 0
-156 387 388 -389 0
-387 389 0
-387 -388 0
156 -387 542 0
157 388 494 0
388 -477 494 0
-388 -494 0
-157 -388 477 0
389 390 -519 0
-157 389 390 410 0
-389 -390 0
-389 -410 519 0
157 -389 519 0
390 -391 -427 0
390 -427 428 -429 0
-390 427 0
-390 391 -428 0
-390 391 429 0
391 -425 426 0
-391 425 0
-391 -426 0
273 392 -404 0
273 392 -406 0
-273 -392 0
-392 404 406 0
-328 393 -438 0
-329 393 -438 0
-393 438 0
328 329 -393 0
309 327 394 -395 0
327 394 -395 473 0
-394 395 0
-327 -394 0
-309 -394 -473 0
315 395 -396 -548 0
-293 315 395 -396 0
-395 396 0
-315 -395 0
293 -395 548 0
396 397 431 0
7 396 397 0
-396 -397 0
-7 -396 -431 0
125 397 474 -475 0
125 330 397 474 0
-397 -474 0
-125 -397 0
-330 -397 475 0
122 225 398 0
111 298 398 0
225 298 398 0
111 122 398 0
-111 -225 -398 0
-122 -298 -398 0
16 399 -410 0
16 -323 399 0
-16 -399 0
323 -399 410 0
267 -278 400 -402 0
267 278 400 401 0
-278 400 -401 -402 0
278 -400 -401 0
-278 -400 402 0
-267 -400 401 0
-98 401 547 0
401 539 547 0
-401 -547 0
98 -401 -539 0
-295 402 408 0
-402 -408 0
295 -402 0
1 2 0
-1 -2 0
726 0

